/*********************************************
 * OPL 22.1.1.0 Data
 * Author: filippostruffi
 * Creation Date: Feb 6, 2025 at 5:29:15 PM
 *********************************************/

load_value = [15500, 14400, 10350, 14525, 13000, 9625];
weight_ind_limit = [5000,4500,3000,3500,4000,3500];
volume_load_value = [625,288,432,1568,192,63];
weight_limit = 15000;
volume_limit = 1300;
max_supply = [1,1,1,1,1,1];